80	100	100	100
3	5	8
9	8	8
9	3	1
5	6	1
7	9	7
3	2	7
6	1	3
8	2	9
6	7	5
9	4	2
2	5	6
6	1	5
2	1	8
7	2	3
6	4	4
5	5	5
8	7	9
3	3	7
1	3	3
7	5	9
8	1	8
3	4	9
2	6	8
3	6	9
2	7	2
9	2	3
3	8	4
7	1	6
9	8	2
5	3	5
3	5	8
3	8	6
7	3	3
6	5	4
1	9	3
4	8	4
9	2	7
2	9	7
3	9	5
1	2	9
1	7	4
9	5	2
5	1	2
8	8	6
6	7	1
8	5	9
8	7	8
2	8	9
6	7	4
7	8	1
3	9	5
2	2	1
5	3	4
2	3	8
7	9	4
7	9	7
4	1	8
4	5	8
1	7	6
5	6	2
8	2	2
6	8	4
6	2	5
8	3	7
5	7	1
7	5	7
6	7	9
3	3	2
3	1	8
9	4	8
3	2	6
4	6	9
6	2	9
6	9	2
3	6	3
7	4	5
5	1	5
1	6	9
5	6	7
1	9	9
